NAME : XML100_3375_24
DIMENSION : 101
NB_CLUSTERS : 9
CLUSTERING_ALG : KMeans
CLUSTERING_PARAMS : k(8)
CLUSTERS
1 0
2 1 2 9 10 14 30 35 37 39 41 43 44 45 55 60 62 63 66 76 81 87 91 95 96 97 100
3 3 4 7 13 19 21 22 23 28 46 50 54 64 67 68 70 73 75 78 80 83 98 99
4 8 12 17 32 36 38 47 61 77 86
5 18 20 25 34 49 53 59 79 85 93
6 26 48 58 72 74 84 88 89 94
7 6 11 27 29 40
8 15 31 52 65 82 90
9 5 16 24 33 42 51 56 57 69 71 92
EOF